&control 
  calculation = 'cp'
  restart_mode = 'restart'
  pseudo_dir = './'
  outdir = './'
  ndr = 52
  ndw = 53
  nstep = 100000
  isave = 100
  dt = 5.0
  tprnfor = .true.
  etot_conv_thr = 1.d-10
  ekin_conv_thr = 1.d-10
/
&system
  ibrav = 1
  celldm(1) = 8.992926526086501
  nat = 24
  ntyp = 2
  ecutwfc = 100.0
  nr1b = 20
  nr2b = 20
  nr3b = 20
/
&electrons 
  ortho_eps = 1.d-10
  conv_thr = 1.d-10
  electron_dynamics = 'verlet'
  electron_temperature = 'not_controlled'
/
&ions
  ion_dynamics = 'verlet'
  ion_temperature = 'not_controlled'
/
ATOMIC_SPECIES
H  2.01355d0   H.pbe-rrkjus_psl.1.0.0.UPF
O  15.9994d0   O.pbe-n-rrkjus_psl.1.0.0.UPF
ATOMIC_POSITIONS (angstrom)
H        0.546318147   3.590197100   1.378263094
H        0.954517747   1.514354410   2.962342290
H        0.787888461   0.839350586   0.882540414
H        0.690257635   4.012130108   3.523315035
H        1.422020290   2.976291371   4.199262570
H        1.911299965   0.459205219   3.602781703
H        1.828794078   1.871633787   0.576792770
H        1.946228278   4.149043985   1.536193059
H        2.725439641   2.555594560   2.094999602
H        2.836223112   0.711459835   1.813503111
H        3.211183622   1.589661849   4.255508903
H        3.222339725   4.387287879   3.234448546
H        3.318242996   3.331665062   0.710502282
H        4.116749767   3.291295818   3.650754796
H        4.058582887   1.405332231   1.341492542
H        4.567565079   1.259083902   4.101506299
O        0.879149924   1.740236248   0.473861651
O        1.191946976   4.175633551   0.945925757
O        1.160662660   3.202160763   3.314667437
O        1.652034050   0.830221030   2.757174921
O        3.634262890   4.063356567   4.040261996
O        3.430459498   3.027438556   1.650271679
O        3.895379902   1.693296866   3.581490191
O        3.468457670   0.676754719   1.074629351
